--- Job gams_0064_002_32_04_0.67_05_0.25_0.90_05_problem.txt Start 02/24/21 19:03:35 35.2.0 r33388c4 WEX-WEI x86 64bit/MS Windows
--- Applying:
    C:\Users\MariaSosnovskaya\GAMS35\gmsprmNT.txt
--- GAMS Parameters defined
    Input C:\Users\MariaSosnovskaya\Downloads\WfmGams3\problems\gams_0064_002_32_04_0.67_05_0.25_0.90_05_problem.txt
    ScrDir C:\Users\MariaSosnovskaya\Downloads\WfmGams3\225j\
    SysDir C:\Users\MariaSosnovskaya\GAMS35\
Licensee: GAMS Evaluation License                        S210124/0001AB-GEN
          Sobolev Institute of Mathematics, Discrete Optimization LaDCE1098
          C:\Users\MariaSosnovskaya\GAMS35\gamslice.txt
          Evaluation license: Not for commercial or production use
GAMS 35.2.0   Copyright (C) 1987-2021 GAMS Development. All rights reserved
--- Starting compilation
--- gams_0064_002_32_04_0.67_05_0.25_0.90_05_problem.txt(22) 3 Mb
--- . gams_0064_002_32_04_0.67_05_0.25_0.90_05.inc(6600) 3 Mb
--- gams_0064_002_32_04_0.67_05_0.25_0.90_05_problem.txt(98) 3 Mb
--- Starting execution: elapsed 0:00:00.031
--- gams_0064_002_32_04_0.67_05_0.25_0.90_05_problem.txt(6621) 4 Mb
--- Generating MIP model mymodel
--- gams_0064_002_32_04_0.67_05_0.25_0.90_05_problem.txt(6677) 9 Mb
---   16,769 rows  12,289 columns  56,385 non-zeroes
---   12,288 discrete-columns
--- Executing CPLEX (Solvelink=2): elapsed 0:00:00.164

IBM ILOG CPLEX   35.2.0 r33388c4 Released Jun 02, 2021 WEI x86 64bit/MS Window

--- GAMS/Cplex licensed for continuous and discrete problems.
--- Space for names approximately 0.61 Mb
--- Use option 'names no' to turn use of names off
--- GMO memory 6.31 Mb (peak 6.40 Mb)
--- Dictionary memory 0.00 Mb
--- Cplex 20.1.0.1 link memory 0.43 Mb (peak 1.99 Mb)
--- Starting Cplex

Version identifier: 20.1.0.1 | 2021-04-07 | 3a818710c
CPXPARAM_Advance                                 0
CPXPARAM_Threads                                 1
CPXPARAM_MIP_Display                             4
CPXPARAM_TimeLimit                               3600
CPXPARAM_MIP_Tolerances_AbsMIPGap                0
Generic callback                                 0x50
Tried aggregator 2 times.
MIP Presolve eliminated 8321 rows and 834 columns.
Aggregator did 192 substitutions.
Reduced MIP has 8256 rows, 11264 columns, and 37864 nonzeros.
Reduced MIP has 11264 binaries, 0 generals, 0 SOSs, and 0 indicators.
Presolve time = 0.09 sec. (42.39 ticks)
Probing fixed 896 vars, tightened 0 bounds.
Probing changed sense of 48 constraints.
Probing time = 0.09 sec. (29.74 ticks)
Tried aggregator 16 times.
MIP Presolve eliminated 384 rows and 956 columns.
Aggregator did 384 substitutions.
Reduced MIP has 7488 rows, 9924 columns, and 33720 nonzeros.
Reduced MIP has 9924 binaries, 0 generals, 0 SOSs, and 0 indicators.
Presolve time = 0.73 sec. (319.30 ticks)
Probing time = 0.00 sec. (4.45 ticks)
Tried aggregator 1 time.
Detecting symmetries...
Reduced MIP has 7488 rows, 9924 columns, and 33720 nonzeros.
Reduced MIP has 9924 binaries, 0 generals, 0 SOSs, and 0 indicators.
Presolve time = 0.05 sec. (30.08 ticks)
Probing time = 0.02 sec. (4.45 ticks)
Clique table members: 24722.
MIP emphasis: balance optimality and feasibility.
MIP search method: dynamic search.
Parallel mode: none, using 1 thread.
Tried aggregator 1 time.
No LP presolve or aggregator reductions.
Presolve time = 0.00 sec. (4.37 ticks)
Initializing dual steep norms . . .

Iteration log . . .
Iteration:     1   Dual objective     =          8630.000000
Perturbation started.
Iteration:   101   Dual objective     =          8630.000000
Iteration:   495   Dual objective     =          8629.999822
Iteration:   865   Dual objective     =          8629.999698
Iteration:  1236   Dual objective     =          8629.999573
Iteration:  1597   Dual objective     =          8629.999455
Iteration:  1967   Dual objective     =          8629.999326
Iteration:  2327   Dual objective     =          8629.999230
Iteration:  2651   Dual objective     =          8629.999182
Iteration:  2983   Dual objective     =          8629.999148
Iteration:  3301   Dual objective     =          8629.999123
Iteration:  3604   Dual objective     =          8629.999105
Iteration:  3901   Dual objective     =          8629.999089
Iteration:  4179   Dual objective     =          8629.999076
Iteration:  4447   Dual objective     =          8629.999061
Iteration:  4732   Dual objective     =          8629.999045
Iteration:  4970   Dual objective     =          8629.999034
Iteration:  5196   Dual objective     =          8629.999023
Iteration:  5384   Dual objective     =          8629.999016
Iteration:  5542   Dual objective     =          8629.999011
Iteration:  5703   Dual objective     =          8629.999003
Iteration:  5834   Dual objective     =          8629.998998
Iteration:  5970   Dual objective     =          8629.998993
Iteration:  6111   Dual objective     =          8629.998988
Iteration:  6246   Dual objective     =          8629.998984
Iteration:  6374   Dual objective     =          8629.998980
Iteration:  6512   Dual objective     =          8629.998976
Iteration:  6642   Dual objective     =          8629.998974
Iteration:  6772   Dual objective     =          8629.998971
Iteration:  6897   Dual objective     =          8629.998969
Iteration:  7021   Dual objective     =          8629.998967
Iteration:  7151   Dual objective     =          8629.998965
Iteration:  7271   Dual objective     =          8629.998964
Iteration:  7396   Dual objective     =          8629.998963
Iteration:  7521   Dual objective     =          8629.998962
Iteration:  7638   Dual objective     =          8629.998962
Removing perturbation.

Iteration log . . .
Iteration:     1   Dual objective     =          8630.000000
Root relaxation solution time = 1.25 sec. (622.48 ticks)

        Nodes                                         Cuts/
   Node  Left     Objective  IInf  Best Integer    Best Bound    ItCnt     Gap

      0     0     8630.0000  1244                   8630.0000     7744         
      0     0     8630.0000   304                ZeroHalf: 11     8048         
      0     0     8630.0000   408                    Cuts: 48     8546         
      0     0     8630.0000    14                 ZeroHalf: 1     8566         
      0     0     8630.0000    42                 ZeroHalf: 1     8591         
*     0+    0                         8626.0000     8630.0000             0.05%
Found incumbent of value 8626.000000 after 6.97 sec. (3625.17 ticks)
*     0+    0                         8628.0000     8630.0000             0.02%
Found incumbent of value 8628.000000 after 7.00 sec. (3636.40 ticks)
*     0+    0                         8630.0000     8630.0000             0.00%
Found incumbent of value 8630.000000 after 7.02 sec. (3647.37 ticks)
      0     0        cutoff           8630.0000     8630.0000     8591    0.00%
      0     0        cutoff           8630.0000     8630.0000     8591    0.00%
Elapsed time = 7.02 sec. (3650.10 ticks, tree = 0.01 MB, solutions = 3)

Zero-half cuts applied:  26
Gomory fractional cuts applied:  7

Root node processing (before b&c):
  Real time             =    7.04 sec. (3650.65 ticks)
Sequential b&c:
  Real time             =    0.00 sec. (0.00 ticks)
                          ------------
Total (root+branch&cut) =    7.04 sec. (3650.65 ticks)

--- MIP status (101): integer optimal solution.
--- Cplex Time: 7.04sec (det. 3650.68 ticks)

--- Fixing integer variables and solving final LP...

Version identifier: 20.1.0.1 | 2021-04-07 | 3a818710c
CPXPARAM_Advance                                 2
CPXPARAM_Threads                                 1
CPXPARAM_MIP_Display                             4
CPXPARAM_TimeLimit                               3600
CPXPARAM_MIP_Tolerances_AbsMIPGap                0
Tried aggregator 1 time.
LP Presolve eliminated 16769 rows and 12290 columns.
All rows and columns eliminated.
Presolve time = 0.02 sec. (7.10 ticks)

--- Fixed MIP status (1): optimal.
--- Cplex Time: 0.02sec (det. 12.43 ticks)


Proven optimal solution
MIP Solution:         8630.000000    (8591 iterations, 0 nodes)
Final Solve:          8630.000000    (0 iterations)

Best possible:        8630.000000
Absolute gap:            0.000000
Relative gap:            0.000000

--- Reading solution for model mymodel
--- Executing after solve: elapsed 0:00:07.392
--- gams_0064_002_32_04_0.67_05_0.25_0.90_05_problem.txt(6678) 9 Mb--- gams_0064_002_32_04_0.67_05_0.25_0.90_05_problem.txt(6698) 9 Mb
--- Putfile results C:\Users\MariaSosnovskaya\Downloads\WfmGams3\problems\gams_0064_002_32_04_0.67_05_0.25_0.90_05_results.txt
*** Status: Normal completion
--- Job gams_0064_002_32_04_0.67_05_0.25_0.90_05_problem.txt Stop 02/24/21 19:03:42 elapsed 0:00:07.412
